sing20150118.12
TTAA  68121 48698
99008 28458 06010 00086 27058 03515 92769 20633 01018
85496 16634 32514 70131 10662 23008 50586 03562 31508
40758 15561 29011 30968 31535 17012 25095 40750 12025
20243 53347 11543 15425 64357 20513 10661 82744 13011
88999
77999=
TTCC  68125 48698
70859 80575 13513 50052 70777 10523
88965 84345 11021
77999=
TTDD  6812/ 48698
11965 84345 22807 85350 33752 81158 44733 79556 55708
80774 66703 80574 77606 78975 88576 76176 99569 74576
11554 73177 22491 70377 33345 64579 44338 64979
21212 11953 10524 22802 12528 33774 10510 44747 17007
55697 13013 66682 06509 77667 03504 88639 36019 99626
35521 11614 01014 22554 12521 33535 14023 44507 11020
55472 10529 66440 08542 77424 06540 88416 07044 99401
08040 11394 09044 22380 08549 33366 08546 44342 10052
55338 09550=
